67 300 21 106 134 67 122 87 72 54 66 18 179 6 63 160 49 118 110 165 59 59 70 108 177 161 117 104 33 68 27 13 186 199 70 120 65 191 158 88 197 23 105 175 180 120 134 180 37 196 144 48 54 165 155 31 125 24 86 110 91 112 122 76 62 192 147 126 134 